% File represents an instance of a Composite Structure problem to be solved by a CP framework
% Created on 2025-03-26 10:42:19.964
T = 50;
n = 36;
m = 60;
edges = [(1, 2),
(7, 8),
(13, 14),
(19, 20),
(25, 26),
(31, 32),
(2, 3),
(8, 9),
(14, 15),
(20, 21),
(27, 26),
(33, 32),
(3, 4),
(9, 10),
(15, 16),
(22, 21),
(27, 28),
(34, 33),
(4, 5),
(10, 11),
(16, 17),
(22, 23),
(28, 29),
(34, 35),
(6, 5),
(12, 11),
(18, 17),
(23, 24),
(29, 30),
(36, 35),
(7, 1),
(7, 13),
(13, 19),
(19, 25),
(25, 31),
(8, 2),
(8, 14),
(14, 20),
(20, 26),
(26, 32),
(9, 3),
(9, 15),
(15, 21),
(27, 21),
(27, 33),
(10, 4),
(10, 16),
(22, 16),
(22, 28),
(34, 28),
(11, 5),
(11, 17),
(23, 17),
(29, 23),
(35, 29),
(12, 6),
(12, 18),
(18, 24),
(30, 24),
(36, 30)];
counts = [|8, 14, 8, 14,
|8, 8, 8, 14,
|6, 8, 6, 14,
|6, 6, 6, 10,
|6, 2, 6, 10,
|6, 4, 6, 14,
|8, 14, 8, 20,
|8, 10, 8, 18,
|6, 10, 6, 18,
|6, 8, 6, 14,
|6, 4, 6, 12,
|8, 4, 8, 14,
|6, 12, 6, 20,
|6, 10, 6, 16,
|6, 6, 6, 16,
|6, 4, 6, 14,
|6, 4, 6, 8,
|8, 4, 8, 8,
|6, 10, 6, 16,
|6, 8, 6, 12,
|6, 6, 6, 10,
|6, 6, 6, 14,
|6, 4, 6, 10,
|6, 2, 6, 8,
|4, 10, 4, 14,
|4, 8, 4, 10,
|6, 8, 6, 12,
|6, 6, 6, 12,
|6, 4, 6, 12,
|6, 2, 6, 12,
|4, 10, 4, 8,
|4, 8, 4, 8,
|4, 8, 4, 12,
|6, 8, 6, 14,
|6, 6, 6, 12,
|6, 8, 6, 12|];
